Quantum-Cryptanalysis/instances/samples/hf_n23/hf_n23_cnf00.cnf
c Parameters to produce the formula :
c key -1 -2 3 4 -5 -6 -7 8 -9 10 11 -12 13 -14 15 -16 -17 -18 19 -20 21 -22 -23 24 -25 26 27 28 29 -30 -31 32
c plaintext 1 -2 3 -4 5 -6 7 8 9 -10 -11 -12 -13 -14 -15 16
c ciphertext -1 -2 3 4 -5 6 -7 8 -9 10 11 -12 -13 -14 -15 16
c 
p cnf 23 83
-1 -17 4 2 0
5 8 6 0
12 -9 -11 23 -10 0
-17 1 -3 2 0
-7 18 -6 8 0
-1 -4 0
-21 4 -3 -2 0
12 -10 -23 11 0
9 -10 -23 11 0
-1 4 -3 -2 0
-11 10 -12 -19 9 0
15 16 -13 -14 0
5 -22 6 7 -8 0
-21 -4 3 2 0
15 16 14 -13 0
-2 -4 3 0
-9 -11 10 0
15 16 -13 20 0
-1 3 2 0
9 19 10 11 0
-16 -14 -15 -13 20 0
12 9 -10 -23 0
12 19 10 11 0
1 -4 21 -3 2 0
15 14 20 -13 0
7 -6 8 0
4 -2 3 -1 17 0
5 -8 -6 0
10 11 23 -12 9 0
12 9 11 0
7 -8 -6 0
-12 -10 -11 0
-17 4 -3 2 0
5 18 -7 6 0
-7 8 6 0
7 -6 -5 0
16 -14 -15 0
14 13 -15 0
5 18 -7 8 0
-9 -10 11 12 0
-1 4 -3 2 0
-7 -6 -18 -5 -8 0
-20 14 -15 16 -13 0
-2 3 -1 4 21 0
5 -7 -6 22 0
7 6 8 22 0
1 4 3 2 0
15 14 13 -16 0
8 -5 0
7 6 -5 0
-12 9 19 11 0
5 -18 6 7 -8 0
1 -4 -3 -2 0
7 -8 -5 0
15 16 -14 20 0
1 -2 3 -17 4 0
-12 -9 0
5 -7 -8 0
1 -21 -3 -2 0
-12 19 11 -10 0
18 -5 -8 6 0
-16 14 20 13 0
-16 -13 14 -15 0
1 -21 4 -2 0
-17 -4 -3 -2 0
12 9 -11 10 0
-9 12 -11 -19 -10 0
-17 -4 -3 1 0
15 -14 13 -16 0
-7 -8 -6 22 0
-7 18 -8 6 0
12 19 -11 9 -10 0
-7 -22 -5 6 -8 0
-12 9 -10 11 0
-9 10 11 12 0
-16 -14 13 -15 0
15 -13 -16 0
16 13 0
15 14 20 -16 0
1 -4 3 17 2 0
12 -9 19 10 0
-12 -11 10 -23 0
1 4 -3 0
